qbf_easy_train/easy_5696_SAT.qdimacs
p cnf 38 108
a 4 5 31 0
e 1 2 3 6 7 8 9 10 11 12 13 14 15 16 17 18 19 20 21 22 23 24 25 26 27 28 29 30 32 33 34 35 36 37 38 0
-1 -2 -3 0
1 2 -3 0
-1 2 3 0
1 -2 3 0
4 -3 0
4 -2 0
3 2 -4 0
-7 -6 0
-7 -2 0
6 2 7 0
8 -5 0
8 -7 0
5 7 -8 0
10 11 -12 0
-10 -11 -12 0
10 -11 12 0
-10 11 12 0
13 -9 0
13 -12 0
9 12 -13 0
-14 -1 0
-14 -1 0
1 14 0
-15 -13 0
-15 -14 0
13 14 15 0
-8 15 -16 0
8 -15 -16 0
-8 -15 16 0
8 15 16 0
17 9 0
17 9 0
-9 -17 0
18 -9 0
18 17 0
9 -17 -18 0
-3 -19 0
3 -19 0
-20 -18 0
-20 -19 0
18 19 20 0
-21 -20 0
-21 7 0
20 -7 21 0
-22 10 -23 0
22 -10 -23 0
-22 -10 23 0
22 10 23 0
7 23 -24 0
-7 -23 -24 0
7 -23 24 0
-7 23 24 0
-25 7 0
-25 -24 0
-7 24 25 0
-26 -21 0
-26 25 0
21 -25 26 0
-27 -2 0
-27 19 0
2 -19 27 0
27 1 -28 0
-27 -1 -28 0
27 -1 28 0
-27 1 28 0
-27 -18 -29 0
27 18 -29 0
-27 18 29 0
27 -18 29 0
30 -28 0
30 -29 0
28 29 -30 0
-31 -27 0
-31 -9 0
27 9 31 0
31 -6 -32 0
-31 6 -32 0
31 6 32 0
-31 -6 32 0
-33 -30 0
-33 32 0
30 -32 33 0
34 -26 0
34 33 0
26 -33 -34 0
35 16 0
35 34 0
-16 -34 -35 0
36 12 0
36 27 0
-12 -27 -36 0
-37 -35 0
-37 -36 0
35 36 37 0
38 4 0
38 37 0
-4 -37 -38 0
-22 -21 -4 2 32 13 -33 0
13 -29 -38 0
-22 -15 24 -32 35 0
17 32 -9 7 0
14 -8 1 11 -22 -23 -21 0
-37 2 -19 0
-10 5 -11 7 32 0
18 24 -15 6 -4 0
8 30 -15 -19 7 0
-6 21 -28 12 -30 -22 -38 0
38 0
