sat_easy_train/easy_5696_SAT.dimacs
p cnf 60 169
-1 -2 -3 0
1 2 -3 0
-1 2 3 0
1 -2 3 0
5 4 0
5 -4 0
-5 1 -6 0
5 -1 -6 0
-5 -1 6 0
5 1 6 0
8 -6 0
8 7 0
6 -7 -8 0
-12 -10 0
-12 -11 0
10 11 12 0
-13 2 0
-13 -12 0
-2 12 13 0
14 -1 0
14 13 0
1 -13 -14 0
15 -9 0
15 -14 0
9 14 -15 0
16 -7 0
16 -15 0
7 15 -16 0
-17 8 0
-17 16 0
-8 -16 17 0
-18 15 -19 0
18 -15 -19 0
-18 -15 19 0
18 15 19 0
22 20 0
22 -21 0
-20 21 -22 0
-22 -23 -24 0
22 23 -24 0
-22 23 24 0
22 -23 24 0
-25 -14 0
-25 15 0
14 -15 25 0
26 24 0
26 -25 0
-24 25 -26 0
-27 19 0
-27 -26 0
-19 26 27 0
-28 -5 0
-28 9 0
5 -9 28 0
-27 -28 -29 0
27 28 -29 0
-27 28 29 0
27 -28 29 0
31 23 0
31 -30 0
-23 30 -31 0
32 -13 -33 0
-32 13 -33 0
32 13 33 0
-32 -13 33 0
34 31 0
34 33 0
-31 -33 -34 0
36 35 0
36 -35 0
-38 36 0
-38 37 0
-36 -37 38 0
20 38 -39 0
-20 -38 -39 0
20 -38 39 0
-20 38 39 0
40 34 0
40 -39 0
-34 39 -40 0
-41 -37 0
-41 -35 0
37 35 41 0
35 2 -42 0
-35 -2 -42 0
35 -2 42 0
-35 2 42 0
-41 42 -43 0
41 -42 -43 0
-41 -42 43 0
41 42 43 0
-40 -43 -44 0
40 43 -44 0
-40 43 44 0
40 -43 44 0
7 -38 -45 0
-7 38 -45 0
7 38 45 0
-7 -38 45 0
47 46 0
47 4 0
-46 -4 -47 0
48 35 0
48 11 0
-35 -11 -48 0
-49 -48 0
-49 -5 0
48 5 49 0
-50 18 0
-50 -49 0
-18 49 50 0
51 47 0
51 -50 0
-47 50 -51 0
52 45 0
52 -51 0
-45 51 -52 0
53 30 0
53 23 0
-30 -23 -53 0
52 -53 -54 0
-52 53 -54 0
52 53 54 0
-52 -53 54 0
38 4 -55 0
-38 -4 -55 0
38 -4 55 0
-38 4 55 0
56 -54 0
56 55 0
54 -55 -56 0
44 56 -57 0
-44 -56 -57 0
44 -56 57 0
-44 56 57 0
29 57 -58 0
-29 -57 -58 0
29 -57 58 0
-29 57 58 0
-59 -17 0
-59 -58 0
17 58 59 0
3 59 -60 0
-3 -59 -60 0
3 -59 60 0
-3 59 60 0
-48 9 -31 0
28 59 0
52 56 2 43 -55 17 0
-54 13 1 -30 47 0
-32 50 60 11 0
28 40 32 -43 -37 -19 0
-54 -40 0
-48 -16 50 59 -3 -39 0
3 -59 -23 47 0
43 23 -21 -56 0
-60 30 57 -52 0
11 -24 -25 -48 22 0
-44 -22 0
35 27 11 0
-3 -45 59 37 -14 -26 0
-24 -41 -30 0
42 27 0
-19 -4 25 -27 -51 0
-36 -24 -27 -16 -8 -59 0
51 -7 54 -46 21 41 0
-32 20 0
12 54 58 0
60 0
